<number of tasks>
50

<cycle time>
1000

<order strength>
0.197


<task times>
1 620
2 725
3 517
4 594
5 439
6 483
7 531
8 669
9 553
10 438
11 545
12 500
13 471
14 346
15 473
16 216
17 376
18 652
19 474
20 478
21 516
22 435
23 515
24 644
25 420
26 391
27 609
28 400
29 812
30 477
31 433
32 661
33 609
34 337
35 427
36 510
37 441
38 244
39 471
40 231
41 568
42 627
43 466
44 564
45 467
46 415
47 736
48 579
49 418
50 650

<precedence relations>
1,34
2,9
2,13
3,8
3,12
3,29
3,31
4,7
4,11
4,26
4,39
5,6
5,10
6,34
7,34
8,34
9,16
10,15
10,17
10,19
11,20
11,32
13,14
13,18
14,34
15,21
16,22
17,23
18,24
18,25
18,30
21,29
22,27
23,30
24,28
24,31
24,32
25,26
25,32
25,33
26,34
27,36
28,35
28,37
29,39
30,38
32,38
34,40
34,41
34,42
34,43
34,44
35,45
36,46
36,47
37,49
38,48
45,50

<end>
